<number of tasks>
50

<cycle time>
1000

<order strength>
0.203


<task times>
1 243
2 286
3 54
4 205
5 280
6 161
7 361
8 233
9 142
10 193
11 463
12 348
13 202
14 228
15 85
16 264
17 120
18 76
19 69
20 344
21 522
22 44
23 49
24 56
25 77
26 86
27 186
28 530
29 346
30 236
31 284
32 329
33 545
34 267
35 147
36 507
37 205
38 218
39 118
40 317
41 123
42 45
43 535
44 89
45 413
46 250
47 335
48 516
49 441
50 121

<precedence relations>
1,13
2,9
2,11
5,40
6,8
6,10
6,14
7,12
9,35
10,16
10,20
10,38
12,17
12,19
13,15
13,18
14,16
14,21
15,25
16,22
18,31
19,24
20,48
21,23
22,27
22,29
22,30
24,30
24,31
24,47
25,26
25,28
25,32
27,40
28,33
29,37
30,35
31,36
31,39
32,34
32,38
34,42
35,41
35,49
36,42
36,45
37,45
37,46
38,44
39,43
42,50
44,47
46,48
46,49

<end>
